(set-logic SLIA)
(constraint (= (f "geb. 14 oct 1956 Westerkerk HRL") "Westerkerk HRL"))
(constraint (= (f "geb. 14 oct 1956 ") ""))
(constraint (= (f "geb. 15 feb 1987 Westerkerk HRL") "Westerkerk HRL"))
(check-synth)
(synth-fun f ((_arg_0 String)) String ((Start String (ntString)) (ntString String ((Str A) (str.++ ntString A))) (A String ((Str ConstString) (SubStr X P P))) (P Int ((Int ntInt) (Pos X Pattern ntInt Direction))) (Pattern String ((Str ConstString) "ProperCase" "CAPS" "lowercase" "Digits" "Alphabets" "Alphanumeric" "WhiteSpace" "ProperCaseWSpaces" "CAPSWSpaces" "lowercaseSpaces" "AlphabetsWSpaces")) (X String (_arg_0)) (ConstString String (_arg_0 "" " " "1" "9")) (Direction Int (0 1)) (ntInt Int (-5 -4 -3 -2 -1 0 1 2 3 4 5))))
(define-fun ResFun ((_arg_0 String)) String (Str (SubStr _arg_0 (Pos _arg_0 "Alphabets" 2 0) (Pos _arg_0 "Alphabets" 3 1))))
